c description: Random 3-CNF over 24 variables and 102 clauses
c generator: CNFgen (0.9.2)
c copyright: (C) 2012-2022 Massimo Lauria <massimo.lauria@uniroma1.it>
c url: https://massimolauria.net/cnfgen
c command line: cnfgen --output CNF_4.28/24_bit_102_231.cnf randkcnf 3 24 102
c
p cnf 24 102
-6 9 -16 0
9 -18 20 0
-2 -4 21 0
-4 -5 24 0
-4 -10 -23 0
-6 -12 -18 0
-2 -5 -24 0
-4 -11 -20 0
1 -11 -13 0
5 6 -7 0
-6 9 17 0
-12 -15 21 0
-9 -11 13 0
-1 18 21 0
10 -19 -24 0
-1 -16 -22 0
11 -23 24 0
1 5 -23 0
3 9 23 0
4 -7 18 0
-2 -5 -10 0
-1 22 23 0
-3 -8 -13 0
-6 12 -15 0
1 -7 18 0
2 3 -21 0
4 11 -12 0
-2 -5 -21 0
-11 -12 -14 0
-2 10 -16 0
8 -15 18 0
1 5 -20 0
10 -11 24 0
1 -17 -22 0
10 -13 -16 0
-5 -21 -24 0
10 14 19 0
-2 11 -14 0
-14 19 24 0
-15 -16 24 0
-3 4 24 0
2 4 17 0
5 17 -22 0
-4 5 -21 0
-10 11 13 0
5 20 -23 0
-3 -12 15 0
18 -21 22 0
6 9 12 0
3 -23 24 0
2 6 -18 0
-20 -21 23 0
13 -21 23 0
-7 8 22 0
-7 -13 19 0
15 18 -21 0
9 10 11 0
-6 13 -21 0
-2 10 -11 0
-5 17 -22 0
1 21 -22 0
-1 -8 11 0
16 17 21 0
7 13 -23 0
14 22 -24 0
5 9 20 0
-8 -19 -21 0
-4 8 18 0
-8 -20 -21 0
-1 -15 20 0
-7 13 -21 0
14 20 -22 0
3 -12 20 0
2 -11 23 0
3 16 20 0
-1 -8 18 0
-10 -17 -24 0
10 16 -23 0
1 10 -12 0
-6 11 -17 0
1 -9 10 0
2 10 -21 0
11 13 23 0
-11 -15 -21 0
13 15 -22 0
-3 -18 20 0
-13 14 -18 0
-4 -7 -16 0
10 14 18 0
-11 14 22 0
2 17 23 0
14 -15 19 0
5 12 18 0
5 -6 20 0
2 6 23 0
-6 9 23 0
11 17 -23 0
-14 -19 21 0
-2 -6 -20 0
1 -7 -12 0
-11 12 -20 0
-16 -18 -19 0
